Route #1: 19 20 34 2 30 29 54
Route #2: 5 45 27 59 24 8
Route #3: 26 25 60 61 7
Route #4: 13 49 36 48 3 41 42 16
Route #5: 9 38 31 43 46 1 18 52
Route #6: 10 39 23 4 47 62 57 51 35
Route #7: 12 6 37 17 50 53
Route #8: 11 33 44 15 56
Route #9: 28 22 55 32 58 14 40 21
Cost 1618
Time 0.164574
